data/mip_solutions/furman_sahinidis/transshipment/7sp1_cplex.sol
Elapsed time: 0.0354199409485
Nodes explored: 3
Upper bound: 7.0
Lower bound: 7.0
y[0,0]=1
y[0,1]=1
y[0,2]=1
y[1,2]=1
y[1,3]=1
y[2,1]=1
y[2,4]=1
q[0,0,1]=800.0
q[0,0,2]=480.0
q[0,0,3]=2400.0
q[0,0,4]=320.0
q[0,0,5]=1280.0
q[0,1,3]=960.4
q[0,1,4]=655.2
q[0,2,2]=790.5
q[0,2,3]=433.9
q[1,2,1]=527.0
q[1,2,3]=3518.6
q[1,3,1]=595.2
q[1,3,2]=595.2
q[2,1,3]=3953.6
q[2,4,5]=4110.4
r[0,2]=600.0
r[0,3]=169.5
r[0,4]=575.2
r[0,5]=160.0
r[1,1]=1904.0
r[1,2]=1971.8
r[1,3]=2090.6
r[2,3]=1008.0
r[2,4]=2094.4
r[2,5]=2766.4
