data/mip_solutions/furman_sahinidis/transshipment/7sp1_cplex.log

Log started (V12.6.3.0) Tue Jun  6 16:47:35 2017

New value for default parallel thread count: 1

Problem '/tmp/tmpbfJ0Ld.pyomo.lp' read.
Read time = 0.00 sec. (0.01 ticks)

Problem name         : /tmp/tmpbfJ0Ld.pyomo.lp
Objective sense      : Minimize
Variables            :     128  [Nneg: 112,  Binary: 15,  General Integer: 1]
Objective nonzeros   :       1
Linear constraints   :      67  [Less: 15,  Equal: 52]
  Nonzeros           :     344
  RHS nonzeros       :      27

Variables            : Min LB: 0.000000         Max UB: 1.000000       
Objective nonzeros   : Min   : 1.000000         Max   : 1.000000       
Linear constraints   :
  Nonzeros           : Min   : 1.000000         Max   : 5569.200       
  RHS nonzeros       : Min   : 1.000000         Max   : 5040.000       
Tried aggregator 2 times.
MIP Presolve eliminated 27 rows and 66 columns.
MIP Presolve added 4 rows and 0 columns.
Aggregator did 9 substitutions.
Reduced MIP has 35 rows, 53 columns, and 129 nonzeros.
Reduced MIP has 14 binaries, 0 generals, 0 SOSs, and 0 indicators.
Presolve time = 0.00 sec. (0.17 ticks)
Found incumbent of value 15.000000 after 0.00 sec. (0.28 ticks)
Probing time = 0.00 sec. (0.01 ticks)
Tried aggregator 1 time.
MIP Presolve eliminated 3 rows and 0 columns.
MIP Presolve added 6 rows and 0 columns.
Reduced MIP has 38 rows, 53 columns, and 132 nonzeros.
Reduced MIP has 14 binaries, 0 generals, 0 SOSs, and 0 indicators.
Presolve time = 0.00 sec. (0.08 ticks)
Probing time = 0.00 sec. (0.01 ticks)
Clique table members: 6.
MIP emphasis: balance optimality and feasibility.
MIP search method: dynamic search.
Parallel mode: none, using 1 thread.
Root relaxation solution time = 0.00 sec. (0.11 ticks)

        Nodes                                         Cuts/
   Node  Left     Objective  IInf  Best Integer    Best Bound    ItCnt     Gap

*     0+    0                           15.0000        1.0000            93.33%
      0     0        5.0050     4       15.0000        5.0050       21   66.63%
*     0+    0                            7.0000        5.0050            28.50%
      0     0        5.3460     9        7.0000      Cuts: 25       50   23.63%
      0     0        5.5538     9        7.0000      Cuts: 40       66   20.66%
      0     0        6.0000     9        7.0000      Cuts: 22       85   14.29%
      0     0        6.0000     9        7.0000      Cuts: 33      103   14.29%
      0     0        6.0000     9        7.0000      Cuts: 35      115   14.29%
      0     2        6.0000     9        7.0000        6.0000      115   14.29%
Elapsed time = 0.01 sec. (3.19 ticks, tree = 0.01 MB, solutions = 2)

Clique cuts applied:  1
Cover cuts applied:  5
Implied bound cuts applied:  5
Flow cuts applied:  2
Mixed integer rounding cuts applied:  6
Gomory fractional cuts applied:  1

Root node processing (before b&c):
  Real time             =    0.01 sec. (3.19 ticks)
Sequential b&c:
  Real time             =    0.00 sec. (0.23 ticks)
                          ------------
Total (root+branch&cut) =    0.01 sec. (3.42 ticks)

Solution pool: 2 solutions saved.

MIP - Integer optimal solution:  Objective =  7.0000000000e+00
Solution time =    0.01 sec.  Iterations = 162  Nodes = 3
Deterministic time = 3.42 ticks  (291.04 ticks/sec)


Incumbent solution written to file '/tmp/tmpcma5DU.cplex.sol'.

Log started (V12.6.3.0) Mon Jul 24 16:46:05 2017

New value for default parallel thread count: 1

Problem '/tmp/tmpM0w7UN.pyomo.lp' read.
Read time = 0.00 sec. (0.01 ticks)

Problem name         : /tmp/tmpM0w7UN.pyomo.lp
Objective sense      : Minimize
Variables            :     128  [Nneg: 112,  Binary: 15,  General Integer: 1]
Objective nonzeros   :       1
Linear constraints   :      67  [Less: 15,  Equal: 52]
  Nonzeros           :     344
  RHS nonzeros       :      27

Variables            : Min LB: 0.000000         Max UB: 1.000000       
Objective nonzeros   : Min   : 1.000000         Max   : 1.000000       
Linear constraints   :
  Nonzeros           : Min   : 1.000000         Max   : 5569.200       
  RHS nonzeros       : Min   : 1.000000         Max   : 5040.000       
Tried aggregator 2 times.
MIP Presolve eliminated 27 rows and 66 columns.
MIP Presolve added 4 rows and 0 columns.
Aggregator did 9 substitutions.
Reduced MIP has 35 rows, 53 columns, and 129 nonzeros.
Reduced MIP has 14 binaries, 0 generals, 0 SOSs, and 0 indicators.
Presolve time = 0.00 sec. (0.17 ticks)
Found incumbent of value 15.000000 after 0.00 sec. (0.28 ticks)
Probing time = 0.00 sec. (0.01 ticks)
Tried aggregator 1 time.
MIP Presolve eliminated 3 rows and 0 columns.
MIP Presolve added 6 rows and 0 columns.
Reduced MIP has 38 rows, 53 columns, and 132 nonzeros.
Reduced MIP has 14 binaries, 0 generals, 0 SOSs, and 0 indicators.
Presolve time = 0.00 sec. (0.08 ticks)
Probing time = 0.00 sec. (0.01 ticks)
Clique table members: 6.
MIP emphasis: balance optimality and feasibility.
MIP search method: dynamic search.
Parallel mode: none, using 1 thread.
Root relaxation solution time = 0.00 sec. (0.11 ticks)

        Nodes                                         Cuts/
   Node  Left     Objective  IInf  Best Integer    Best Bound    ItCnt     Gap

*     0+    0                           15.0000        1.0000            93.33%
      0     0        5.0050     4       15.0000        5.0050       21   66.63%
*     0+    0                            7.0000        5.0050            28.50%
      0     0        5.3460     9        7.0000      Cuts: 25       50   23.63%
      0     0        5.5538     9        7.0000      Cuts: 40       66   20.66%
      0     0        6.0000     9        7.0000      Cuts: 22       85   14.29%
      0     0        6.0000     9        7.0000      Cuts: 33      103   14.29%
      0     0        6.0000     9        7.0000      Cuts: 35      115   14.29%
      0     2        6.0000     9        7.0000        6.0000      115   14.29%
Elapsed time = 0.01 sec. (3.19 ticks, tree = 0.01 MB, solutions = 2)

Clique cuts applied:  1
Cover cuts applied:  5
Implied bound cuts applied:  5
Flow cuts applied:  2
Mixed integer rounding cuts applied:  6
Gomory fractional cuts applied:  1

Root node processing (before b&c):
  Real time             =    0.01 sec. (3.19 ticks)
Sequential b&c:
  Real time             =    0.00 sec. (0.23 ticks)
                          ------------
Total (root+branch&cut) =    0.01 sec. (3.42 ticks)

Solution pool: 2 solutions saved.

MIP - Integer optimal solution:  Objective =  7.0000000000e+00
Solution time =    0.01 sec.  Iterations = 162  Nodes = 3
Deterministic time = 3.42 ticks  (500.19 ticks/sec)


Incumbent solution written to file '/tmp/tmp9o4HEd.cplex.sol'.

Log started (V12.6.3.0) Mon Jul 24 16:58:58 2017

New value for default parallel thread count: 1

Problem '/tmp/tmpe0NeC0.pyomo.lp' read.
Read time = 0.00 sec. (0.01 ticks)

Problem name         : /tmp/tmpe0NeC0.pyomo.lp
Objective sense      : Minimize
Variables            :     128  [Nneg: 112,  Binary: 15,  General Integer: 1]
Objective nonzeros   :       1
Linear constraints   :      67  [Less: 15,  Equal: 52]
  Nonzeros           :     344
  RHS nonzeros       :      27

Variables            : Min LB: 0.000000         Max UB: 1.000000       
Objective nonzeros   : Min   : 1.000000         Max   : 1.000000       
Linear constraints   :
  Nonzeros           : Min   : 1.000000         Max   : 5569.200       
  RHS nonzeros       : Min   : 1.000000         Max   : 5040.000       
Tried aggregator 2 times.
MIP Presolve eliminated 27 rows and 66 columns.
MIP Presolve added 4 rows and 0 columns.
Aggregator did 9 substitutions.
Reduced MIP has 35 rows, 53 columns, and 129 nonzeros.
Reduced MIP has 14 binaries, 0 generals, 0 SOSs, and 0 indicators.
Presolve time = 0.00 sec. (0.17 ticks)
Found incumbent of value 15.000000 after 0.00 sec. (0.28 ticks)
Probing time = 0.00 sec. (0.01 ticks)
Tried aggregator 1 time.
MIP Presolve eliminated 3 rows and 0 columns.
MIP Presolve added 6 rows and 0 columns.
Reduced MIP has 38 rows, 53 columns, and 132 nonzeros.
Reduced MIP has 14 binaries, 0 generals, 0 SOSs, and 0 indicators.
Presolve time = 0.00 sec. (0.08 ticks)
Probing time = 0.00 sec. (0.01 ticks)
Clique table members: 6.
MIP emphasis: balance optimality and feasibility.
MIP search method: dynamic search.
Parallel mode: none, using 1 thread.
Root relaxation solution time = 0.00 sec. (0.11 ticks)

        Nodes                                         Cuts/
   Node  Left     Objective  IInf  Best Integer    Best Bound    ItCnt     Gap

*     0+    0                           15.0000        1.0000            93.33%
      0     0        5.0050     4       15.0000        5.0050       21   66.63%
*     0+    0                            7.0000        5.0050            28.50%
      0     0        5.3460     9        7.0000      Cuts: 25       50   23.63%
      0     0        5.5538     9        7.0000      Cuts: 40       66   20.66%
      0     0        6.0000     9        7.0000      Cuts: 22       85   14.29%
      0     0        6.0000     9        7.0000      Cuts: 33      103   14.29%
      0     0        6.0000     9        7.0000      Cuts: 35      115   14.29%
      0     2        6.0000     9        7.0000        6.0000      115   14.29%
Elapsed time = 0.01 sec. (3.19 ticks, tree = 0.01 MB, solutions = 2)

Clique cuts applied:  1
Cover cuts applied:  5
Implied bound cuts applied:  5
Flow cuts applied:  2
Mixed integer rounding cuts applied:  6
Gomory fractional cuts applied:  1

Root node processing (before b&c):
  Real time             =    0.01 sec. (3.19 ticks)
Sequential b&c:
  Real time             =    0.00 sec. (0.23 ticks)
                          ------------
Total (root+branch&cut) =    0.01 sec. (3.42 ticks)

Solution pool: 2 solutions saved.

MIP - Integer optimal solution:  Objective =  7.0000000000e+00
Solution time =    0.01 sec.  Iterations = 162  Nodes = 3
Deterministic time = 3.42 ticks  (498.66 ticks/sec)


Incumbent solution written to file '/tmp/tmpcV9V3j.cplex.sol'.

Log started (V12.6.3.0) Wed Jul 26 16:03:17 2017

New value for default parallel thread count: 1

Problem '/tmp/tmp2N0jI6.pyomo.lp' read.
Read time = 0.00 sec. (0.01 ticks)

Problem name         : /tmp/tmp2N0jI6.pyomo.lp
Objective sense      : Minimize
Variables            :     128  [Nneg: 112,  Binary: 15,  General Integer: 1]
Objective nonzeros   :       1
Linear constraints   :      67  [Less: 15,  Equal: 52]
  Nonzeros           :     344
  RHS nonzeros       :      27

Variables            : Min LB: 0.000000         Max UB: 1.000000       
Objective nonzeros   : Min   : 1.000000         Max   : 1.000000       
Linear constraints   :
  Nonzeros           : Min   : 1.000000         Max   : 5569.200       
  RHS nonzeros       : Min   : 1.000000         Max   : 5040.000       
Tried aggregator 2 times.
MIP Presolve eliminated 27 rows and 66 columns.
MIP Presolve added 4 rows and 0 columns.
Aggregator did 9 substitutions.
Reduced MIP has 35 rows, 53 columns, and 129 nonzeros.
Reduced MIP has 14 binaries, 0 generals, 0 SOSs, and 0 indicators.
Presolve time = 0.00 sec. (0.17 ticks)
Found incumbent of value 15.000000 after 0.00 sec. (0.28 ticks)
Probing time = 0.00 sec. (0.01 ticks)
Tried aggregator 1 time.
MIP Presolve eliminated 3 rows and 0 columns.
MIP Presolve added 6 rows and 0 columns.
Reduced MIP has 38 rows, 53 columns, and 132 nonzeros.
Reduced MIP has 14 binaries, 0 generals, 0 SOSs, and 0 indicators.
Presolve time = 0.00 sec. (0.08 ticks)
Probing time = 0.00 sec. (0.01 ticks)
Clique table members: 6.
MIP emphasis: balance optimality and feasibility.
MIP search method: dynamic search.
Parallel mode: none, using 1 thread.
Root relaxation solution time = 0.00 sec. (0.11 ticks)

        Nodes                                         Cuts/
   Node  Left     Objective  IInf  Best Integer    Best Bound    ItCnt     Gap

*     0+    0                           15.0000        1.0000            93.33%
      0     0        5.0050     4       15.0000        5.0050       21   66.63%
*     0+    0                            7.0000        5.0050            28.50%
      0     0        5.3460     9        7.0000      Cuts: 25       50   23.63%
      0     0        5.5538     9        7.0000      Cuts: 40       66   20.66%
      0     0        6.0000     9        7.0000      Cuts: 22       85   14.29%
      0     0        6.0000     9        7.0000      Cuts: 33      103   14.29%
      0     0        6.0000     9        7.0000      Cuts: 35      115   14.29%
      0     2        6.0000     9        7.0000        6.0000      115   14.29%
Elapsed time = 0.02 sec. (3.19 ticks, tree = 0.01 MB, solutions = 2)

Clique cuts applied:  1
Cover cuts applied:  5
Implied bound cuts applied:  5
Flow cuts applied:  2
Mixed integer rounding cuts applied:  6
Gomory fractional cuts applied:  1

Root node processing (before b&c):
  Real time             =    0.02 sec. (3.19 ticks)
Sequential b&c:
  Real time             =    0.00 sec. (0.23 ticks)
                          ------------
Total (root+branch&cut) =    0.02 sec. (3.42 ticks)

Solution pool: 2 solutions saved.

MIP - Integer optimal solution:  Objective =  7.0000000000e+00
Solution time =    0.02 sec.  Iterations = 162  Nodes = 3
Deterministic time = 3.42 ticks  (174.30 ticks/sec)


Incumbent solution written to file '/tmp/tmpG7_AJR.cplex.sol'.
